NAME : problems/40-tsp/instance-49.tsp
COMMENT : No Comment
TYPE : TSP
DIMENSION: 40
EDGE_WEIGHT_TYPE : EUC_2D
NODE_COORD_SECTION
1 3620 60 
2 5327 4536 
3 3158 5016 
4 3802 3584 
5 4260 3857 
6 6626 6516 
7 6489 422 
8 8830 7580 
9 4786 4944 
10 5140 5564 
11 6788 2572 
12 2895 8967 
13 2796 8747 
14 5142 159 
15 8133 1003 
16 6800 3817 
17 6147 9281 
18 8791 9524 
19 5786 5182 
20 7007 6018 
21 5601 1629 
22 1005 3029 
23 8711 5801 
24 9096 8447 
25 7455 187 
26 6835 7961 
27 3922 9436 
28 2095 329 
29 8430 5710 
30 4710 6316 
31 1800 453 
32 8846 1527 
33 1758 1933 
34 4833 1429 
35 4484 6268 
36 5230 6148 
37 4686 8888 
38 465 2209 
39 3007 8948 
40 7227 3103 
EOF
